67 101 89 87 116 114 137 57 107 32 93 21 69 83 35 91 127 110 138 128 86 76 85 50 94 8 49 71 36 115 136 33 23 141 17 3 123 46 31 139 27 75 111 37 102 124 134 132 68 38 55 131 59 103 99 98 118 117 104 130 70 47 140 18 7 90 19 45 126 97 84 143 61 53 63 52 81 6 39 15 10 43 56 40 54 105 66 51 62 80 29 135 16 77 119 9 78 113 88 95 129 74 79 92 20 106 34 58 72 82 100 125 28 42 112 30 2 122 22 60 144 73 64 96 14 41 5 26 44 4 13 65 48 1 133 24 142 120 11 121 109 25 12 108 